problem_generation/data/GISP/train/er_n=62_m=1100_p=0.60_SET2_setparam=100.00_alpha=0.50_305.lp
maximize
OBJ:100x0 + 100x1 + 100x2 + 100x3 + 100x4 + 100x5 + 100x6 + 100x7 + 100x8 + 100x9 + 100x10 + 100x11 + 100x12 + 100x13 + 100x14 + 100x15 + 100x16 + 100x17 + 100x18 + 100x19 + 100x20 + 100x21 + 100x22 + 100x23 + 100x24 + 100x25 + 100x26 + 100x27 + 100x28 + 100x29 + 100x30 + 100x31 + 100x32 + 100x33 + 100x34 + 100x35 + 100x36 + 100x37 + 100x38 + 100x39 + 100x40 + 100x41 + 100x42 + 100x43 + 100x44 + 100x45 + 100x46 + 100x47 + 100x48 + 100x49 + 100x50 + 100x51 + 100x52 + 100x53 + 100x54 + 100x55 + 100x56 + 100x57 + 100x58 + 100x59 + 100x60 + 100x61 - y55_57 - y17_58 - y28_58 - y29_32 - y8_9 - y21_37 - y29_50 - y40_50 - y21_46 - y40_59 - y33_38 - y44_47 - y2_41 - y33_56 - y25_52 - y22_28 - y2_59 - y14_24 - y32_60 - y3_33 - y14_42 - y36_48 - y47_48 - y18_21 - y21_41 - y29_54 - y40_54 - y21_59 - y10_22 - y25_29 - y33_42 - y2_36 - y2_45 - y13_51 - y24_60 - y36_43 - y17_39 - y7_16 - y36_52 - y47_52 - y5_46 - y28_48 - y5_55 - y29_31 - y48_53 - y40_49 - y40_58 - y54_60 - y10_35 - y33_37 - y25_42 - y32_41 - y3_14 - y35_46 - y43_59 - y1_53 - y35_55 - y17_34 - y28_34 - y36_47 - y55_60 - y47_56 - y9_39 - y28_52 - y6_15 - y9_48 - y28_61 - y21_31 - y29_44 - y2_8 - y10_21 - y20_53 - y2_26 - y10_39 - y12_58 - y32_45 - y43_45 - y35_41 - y14_18 - y16_37 - y32_54 - y13_50 - y16_46 - y1_57 - y28_29 - y9_25 - y17_38 - y28_38 - y36_51 - y9_34 - y17_47 - y17_56 - y6_28 - y21_26 - y2_3 - y10_25 - y12_44 - y2_21 - y20_57 - y31_57 - y12_53 - y2_30 - y51_53 - y43_49 - y13_45 - y43_58 - y16_41 - y1_52 - y13_54 - y5_31 - y9_47 - y42_44 - y6_32 - y42_53 - y30_60 - y31_34 - y10_11 - y31_52 - y20_61 - y32_35 - y16_18 - y24_31 - y43_44 - y13_40 - y1_47 - y13_49 - y24_49 - y1_56 - y9_15 - y49_51 - y27_41 - y27_50 - y50_52 - y8_46 - y19_46 - y11_51 - y0_60 - y11_60 - y23_25 - y39_42 - y12_34 - y23_34 - y39_60 - y23_52 - y13_17 - y24_26 - y4_57 - y16_22 - y34_58 - y1_33 - y16_31 - y16_40 - y5_21 - y57_59 - y15_53 - y26_53 - y38_55 - y49_55 - y7_58 - y27_36 - y6_13 - y8_32 - y19_41 - y27_54 - y8_50 - y8_59 - y42_61 - y20_33 - y20_42 - y4_25 - y23_38 - y12_47 - y12_56 - y13_21 - y16_17 - y24_30 - y38_41 - y5_16 - y9_14 - y15_48 - y26_48 - y49_50 - y38_59 - y7_53 - y27_49 - y11_32 - y50_51 - y30_54 - y11_59 - y12_24 - y23_24 - y4_38 - y13_16 - y34_48 - y16_21 - y3_51 - y14_60 - y26_52 - y15_61 - y7_57 - y11_18 - y30_31 - y27_44 - y0_27 - y8_40 - y4_6 - y33_60 - y4_33 - y22_41 - y1_18 - y37_39 - y3_46 - y37_48 - y45_61 - y37_57 - y15_20 - y26_38 - y38_49 - y15_56 - y7_52 - y27_30 - y7_61 - y18_61 - y19_26 - y0_22 - y8_44 - y0_40 - y41_50 - y44_46 - y10_53 - y44_55 - y25_60 - y1_13 - y14_41 - y14_50 - y37_52 - y15_33 - y15_42 - y18_47 - y8_12 - y8_21 - y0_17 - y19_30 - y6_60 - y0_35 - y4_5 - y41_54 - y52_54 - y10_48 - y33_50 - y2_44 - y25_55 - y22_31 - y34_42 - y3_36 - y3_45 - y37_47 - y22_58 - y14_54 - y15_19 - y36_60 - y26_37 - y18_33 - y48_52 - y19_25 - y0_21 - y11_21 - y33_36 - y25_32 - y10_43 - y10_52 - y33_54 - y25_50 - y3_13 - y2_57 - y3_22 - y25_59 - y22_35 - y3_31 - y37_42 - y55_59 - y7_19 - y36_55 - y17_51 - y17_60 - y28_60 - y7_37 - y29_34 - y48_56 - y21_39 - y0_16 - y10_29 - y2_25 - y25_27 - y10_38 - y10_47 - y51_57 - y22_30 - y22_39 - y13_58 - y47_50 - y36_59 - y17_55 - y0_2 - y6_36 - y6_45 - y29_56 - y10_24 - y10_33 - y2_29 - y10_51 - y2_47 - y51_61 - y3_21 - y43_57 - y35_53 - y16_58 - y17_32 - y9_37 - y5_48 - y28_50 - y5_57 - y28_59 - y29_33 - y21_38 - y2_6 - y10_28 - y20_60 - y3_7 - y51_56 - y24_39 - y35_39 - y3_16 - y32_52 - y43_52 - y14_25 - y35_57 - y17_18 - y9_23 - y5_34 - y28_36 - y9_32 - y17_45 - y28_45 - y9_41 - y9_50 - y6_44 - y21_42 - y31_46 - y10_23 - y54_57 - y10_32 - y23_51 - y2_28 - y13_25 - y2_37 - y43_47 - y13_43 - y35_43 - y16_39 - y1_50 - y13_52 - y13_61 - y24_61 - y5_29 - y28_31 - y5_47 - y6_12 - y6_21 - y9_54 - y50_55 - y6_30 - y6_39 - y39_45 - y31_41 - y10_18 - y54_61 - y4_42 - y12_55 - y4_51 - y32_33 - y1_27 - y24_29 - y4_60 - y1_36 - y32_51 - y1_45 - y24_47 - y38_58 - y49_58 - y28_35 - y9_31 - y28_44 - y27_48 - y42_46 - y19_53 - y20_45 - y2_18 - y12_50 - y13_15 - y12_59 - y1_22 - y23_59 - y4_55 - y16_20 - y13_42 - y24_51 - y5_10 - y5_19 - y38_53 - y49_53 - y5_28 - y17_30 - y9_26 - y9_35 - y27_52 - y30_48 - y0_44 - y11_44 - y8_57 - y20_22 - y11_53 - y12_27 - y12_36 - y31_49 - y53_55 - y1_26 - y4_59 - y34_60 - y45_60 - y13_37 - y1_44 - y38_39 - y5_14 - y5_23 - y27_29 - y27_47 - y19_43 - y42_45 - y42_54 - y0_48 - y11_48 - y30_61 - y0_57 - y20_35 - y23_31 - y20_44 - y12_40 - y1_3 - y23_40 - y4_36 - y12_49 - y4_45 - y53_59 - y34_55 - y14_58 - y37_60 - y46_47 - y5_18 - y46_56 - y9_16 - y18_46 - y15_59 - y49_61 - y7_55 - y8_20 - y19_20 - y19_38 - y30_38 - y27_51 - y0_34 - y8_56 - y19_56 - y12_17 - y4_13 - y44_58 - y23_35 - y4_31 - y1_7 - y34_41 - y1_25 - y22_57 - y37_55 - y26_36 - y15_54 - y26_54 - y8_15 - y0_20 - y19_33 - y27_46 - y0_29 - y19_42 - y19_51 - y0_47 - y41_48 - y60_61 - y12_21 - y52_57 - y4_17 - y44_53 - y23_30 - y4_26 - y34_36 - y37_41 - y14_48 - y22_61 - y7_18 - y26_40 - y26_49 - y26_58 - y8_19 - y27_32 - y11_15 - y8_28 - y19_37 - y0_42 - y33_39 - y41_52 - y41_61 - y52_61 - y4_21 - y10_55 - y2_51 - y25_53 - y14_34 - y14_43 - y22_56 - y3_52 - y14_52 - y37_54 - y7_13 - y14_61 - y7_22 - y7_31 - y18_31 - y7_40 - y18_49 - y8_14 - y29_46 - y40_46 - y0_19 - y6_53 - y40_55 - y21_51 - y33_34 - y25_30 - y4_7 - y10_41 - y33_43 - y52_56 - y10_50 - y2_46 - y25_48 - y14_20 - y34_35 - y3_29 - y34_44 - y14_38 - y22_51 - y7_8
 Subject to
C1: x0+x1 <=1 
C2: x0+x2-y0_2 <=1 
C3: x0+x4 <=1 
C4: x0+x5 <=1 
C5: x0+x8 <=1 
C6: x0+x9 <=1 
C7: x0+x16-y0_16 <=1 
C8: x0+x17-y0_17 <=1 
C9: x0+x19-y0_19 <=1 
C10: x0+x20-y0_20 <=1 
C11: x0+x21-y0_21 <=1 
C12: x0+x22-y0_22 <=1 
C13: x0+x24 <=1 
C14: x0+x27-y0_27 <=1 
C15: x0+x28 <=1 
C16: x0+x29-y0_29 <=1 
C17: x0+x32 <=1 
C18: x0+x34-y0_34 <=1 
C19: x0+x35-y0_35 <=1 
C20: x0+x36 <=1 
C21: x0+x37 <=1 
C22: x0+x39 <=1 
C23: x0+x40-y0_40 <=1 
C24: x0+x42-y0_42 <=1 
C25: x0+x44-y0_44 <=1 
C26: x0+x46 <=1 
C27: x0+x47-y0_47 <=1 
C28: x0+x48-y0_48 <=1 
C29: x0+x51 <=1 
C30: x0+x53 <=1 
C31: x0+x54 <=1 
C32: x0+x56 <=1 
C33: x0+x57-y0_57 <=1 
C34: x0+x60-y0_60 <=1 
C35: x1+x2 <=1 
C36: x1+x3-y1_3 <=1 
C37: x1+x7-y1_7 <=1 
C38: x1+x9 <=1 
C39: x1+x13-y1_13 <=1 
C40: x1+x15 <=1 
C41: x1+x16 <=1 
C42: x1+x18-y1_18 <=1 
C43: x1+x19 <=1 
C44: x1+x21 <=1 
C45: x1+x22-y1_22 <=1 
C46: x1+x25-y1_25 <=1 
C47: x1+x26-y1_26 <=1 
C48: x1+x27-y1_27 <=1 
C49: x1+x28 <=1 
C50: x1+x31 <=1 
C51: x1+x33-y1_33 <=1 
C52: x1+x36-y1_36 <=1 
C53: x1+x40 <=1 
C54: x1+x42 <=1 
C55: x1+x44-y1_44 <=1 
C56: x1+x45-y1_45 <=1 
C57: x1+x47-y1_47 <=1 
C58: x1+x49 <=1 
C59: x1+x50-y1_50 <=1 
C60: x1+x52-y1_52 <=1 
C61: x1+x53-y1_53 <=1 
C62: x1+x56-y1_56 <=1 
C63: x1+x57-y1_57 <=1 
C64: x1+x58 <=1 
C65: x1+x59 <=1 
C66: x1+x60 <=1 
C67: x1+x61 <=1 
C68: x2+x3-y2_3 <=1 
C69: x2+x4 <=1 
C70: x2+x6-y2_6 <=1 
C71: x2+x7 <=1 
C72: x2+x8-y2_8 <=1 
C73: x2+x12 <=1 
C74: x2+x16 <=1 
C75: x2+x18-y2_18 <=1 
C76: x2+x20 <=1 
C77: x2+x21-y2_21 <=1 
C78: x2+x22 <=1 
C79: x2+x24 <=1 
C80: x2+x25-y2_25 <=1 
C81: x2+x26-y2_26 <=1 
C82: x2+x28-y2_28 <=1 
C83: x2+x29-y2_29 <=1 
C84: x2+x30-y2_30 <=1 
C85: x2+x32 <=1 
C86: x2+x34 <=1 
C87: x2+x36-y2_36 <=1 
C88: x2+x37-y2_37 <=1 
C89: x2+x38 <=1 
C90: x2+x39 <=1 
C91: x2+x40 <=1 
C92: x2+x41-y2_41 <=1 
C93: x2+x44-y2_44 <=1 
C94: x2+x45-y2_45 <=1 
C95: x2+x46-y2_46 <=1 
C96: x2+x47-y2_47 <=1 
C97: x2+x49 <=1 
C98: x2+x50 <=1 
C99: x2+x51-y2_51 <=1 
C100: x2+x53 <=1 
C101: x2+x57-y2_57 <=1 
C102: x2+x59-y2_59 <=1 
C103: x3+x5 <=1 
C104: x3+x7-y3_7 <=1 
C105: x3+x8 <=1 
C106: x3+x12 <=1 
C107: x3+x13-y3_13 <=1 
C108: x3+x14-y3_14 <=1 
C109: x3+x15 <=1 
C110: x3+x16-y3_16 <=1 
C111: x3+x17 <=1 
C112: x3+x20 <=1 
C113: x3+x21-y3_21 <=1 
C114: x3+x22-y3_22 <=1 
C115: x3+x23 <=1 
C116: x3+x26 <=1 
C117: x3+x27 <=1 
C118: x3+x28 <=1 
C119: x3+x29-y3_29 <=1 
C120: x3+x31-y3_31 <=1 
C121: x3+x33-y3_33 <=1 
C122: x3+x36-y3_36 <=1 
C123: x3+x42 <=1 
C124: x3+x43 <=1 
C125: x3+x45-y3_45 <=1 
C126: x3+x46-y3_46 <=1 
C127: x3+x48 <=1 
C128: x3+x49 <=1 
C129: x3+x51-y3_51 <=1 
C130: x3+x52-y3_52 <=1 
C131: x3+x56 <=1 
C132: x3+x58 <=1 
C133: x4+x5-y4_5 <=1 
C134: x4+x6-y4_6 <=1 
C135: x4+x7-y4_7 <=1 
C136: x4+x9 <=1 
C137: x4+x12 <=1 
C138: x4+x13-y4_13 <=1 
C139: x4+x15 <=1 
C140: x4+x16 <=1 
C141: x4+x17-y4_17 <=1 
C142: x4+x18 <=1 
C143: x4+x21-y4_21 <=1 
C144: x4+x24 <=1 
C145: x4+x25-y4_25 <=1 
C146: x4+x26-y4_26 <=1 
C147: x4+x29 <=1 
C148: x4+x31-y4_31 <=1 
C149: x4+x32 <=1 
C150: x4+x33-y4_33 <=1 
C151: x4+x34 <=1 
C152: x4+x35 <=1 
C153: x4+x36-y4_36 <=1 
C154: x4+x38-y4_38 <=1 
C155: x4+x42-y4_42 <=1 
C156: x4+x45-y4_45 <=1 
C157: x4+x48 <=1 
C158: x4+x49 <=1 
C159: x4+x50 <=1 
C160: x4+x51-y4_51 <=1 
C161: x4+x54 <=1 
C162: x4+x55-y4_55 <=1 
C163: x4+x56 <=1 
C164: x4+x57-y4_57 <=1 
C165: x4+x59-y4_59 <=1 
C166: x4+x60-y4_60 <=1 
C167: x5+x7 <=1 
C168: x5+x8 <=1 
C169: x5+x10-y5_10 <=1 
C170: x5+x14-y5_14 <=1 
C171: x5+x15 <=1 
C172: x5+x16-y5_16 <=1 
C173: x5+x18-y5_18 <=1 
C174: x5+x19-y5_19 <=1 
C175: x5+x21-y5_21 <=1 
C176: x5+x23-y5_23 <=1 
C177: x5+x25 <=1 
C178: x5+x26 <=1 
C179: x5+x28-y5_28 <=1 
C180: x5+x29-y5_29 <=1 
C181: x5+x31-y5_31 <=1 
C182: x5+x33 <=1 
C183: x5+x34-y5_34 <=1 
C184: x5+x35 <=1 
C185: x5+x36 <=1 
C186: x5+x37 <=1 
C187: x5+x42 <=1 
C188: x5+x43 <=1 
C189: x5+x46-y5_46 <=1 
C190: x5+x47-y5_47 <=1 
C191: x5+x48-y5_48 <=1 
C192: x5+x53 <=1 
C193: x5+x55-y5_55 <=1 
C194: x5+x56 <=1 
C195: x5+x57-y5_57 <=1 
C196: x5+x61 <=1 
C197: x6+x7 <=1 
C198: x6+x8 <=1 
C199: x6+x11 <=1 
C200: x6+x12-y6_12 <=1 
C201: x6+x13-y6_13 <=1 
C202: x6+x15-y6_15 <=1 
C203: x6+x16 <=1 
C204: x6+x19 <=1 
C205: x6+x21-y6_21 <=1 
C206: x6+x22 <=1 
C207: x6+x23 <=1 
C208: x6+x28-y6_28 <=1 
C209: x6+x30-y6_30 <=1 
C210: x6+x31 <=1 
C211: x6+x32-y6_32 <=1 
C212: x6+x34 <=1 
C213: x6+x35 <=1 
C214: x6+x36-y6_36 <=1 
C215: x6+x37 <=1 
C216: x6+x38 <=1 
C217: x6+x39-y6_39 <=1 
C218: x6+x44-y6_44 <=1 
C219: x6+x45-y6_45 <=1 
C220: x6+x46 <=1 
C221: x6+x47 <=1 
C222: x6+x53-y6_53 <=1 
C223: x6+x55 <=1 
C224: x6+x59 <=1 
C225: x6+x60-y6_60 <=1 
C226: x7+x8-y7_8 <=1 
C227: x7+x10 <=1 
C228: x7+x11 <=1 
C229: x7+x12 <=1 
C230: x7+x13-y7_13 <=1 
C231: x7+x16-y7_16 <=1 
C232: x7+x17 <=1 
C233: x7+x18-y7_18 <=1 
C234: x7+x19-y7_19 <=1 
C235: x7+x20 <=1 
C236: x7+x22-y7_22 <=1 
C237: x7+x31-y7_31 <=1 
C238: x7+x32 <=1 
C239: x7+x34 <=1 
C240: x7+x35 <=1 
C241: x7+x37-y7_37 <=1 
C242: x7+x38 <=1 
C243: x7+x39 <=1 
C244: x7+x40-y7_40 <=1 
C245: x7+x41 <=1 
C246: x7+x42 <=1 
C247: x7+x44 <=1 
C248: x7+x47 <=1 
C249: x7+x49 <=1 
C250: x7+x51 <=1 
C251: x7+x52-y7_52 <=1 
C252: x7+x53-y7_53 <=1 
C253: x7+x55-y7_55 <=1 
C254: x7+x57-y7_57 <=1 
C255: x7+x58-y7_58 <=1 
C256: x7+x59 <=1 
C257: x7+x61-y7_61 <=1 
C258: x8+x9-y8_9 <=1 
C259: x8+x12-y8_12 <=1 
C260: x8+x14-y8_14 <=1 
C261: x8+x15-y8_15 <=1 
C262: x8+x17 <=1 
C263: x8+x19-y8_19 <=1 
C264: x8+x20-y8_20 <=1 
C265: x8+x21-y8_21 <=1 
C266: x8+x22 <=1 
C267: x8+x24 <=1 
C268: x8+x26 <=1 
C269: x8+x27 <=1 
C270: x8+x28-y8_28 <=1 
C271: x8+x29 <=1 
C272: x8+x30 <=1 
C273: x8+x31 <=1 
C274: x8+x32-y8_32 <=1 
C275: x8+x33 <=1 
C276: x8+x34 <=1 
C277: x8+x36 <=1 
C278: x8+x38 <=1 
C279: x8+x39 <=1 
C280: x8+x40-y8_40 <=1 
C281: x8+x41 <=1 
C282: x8+x42 <=1 
C283: x8+x43 <=1 
C284: x8+x44-y8_44 <=1 
C285: x8+x46-y8_46 <=1 
C286: x8+x47 <=1 
C287: x8+x50-y8_50 <=1 
C288: x8+x51 <=1 
C289: x8+x53 <=1 
C290: x8+x56-y8_56 <=1 
C291: x8+x57-y8_57 <=1 
C292: x8+x58 <=1 
C293: x8+x59-y8_59 <=1 
C294: x8+x60 <=1 
C295: x9+x11 <=1 
C296: x9+x13 <=1 
C297: x9+x14-y9_14 <=1 
C298: x9+x15-y9_15 <=1 
C299: x9+x16-y9_16 <=1 
C300: x9+x19 <=1 
C301: x9+x23-y9_23 <=1 
C302: x9+x24 <=1 
C303: x9+x25-y9_25 <=1 
C304: x9+x26-y9_26 <=1 
C305: x9+x31-y9_31 <=1 
C306: x9+x32-y9_32 <=1 
C307: x9+x34-y9_34 <=1 
C308: x9+x35-y9_35 <=1 
C309: x9+x37-y9_37 <=1 
C310: x9+x39-y9_39 <=1 
C311: x9+x41-y9_41 <=1 
C312: x9+x44 <=1 
C313: x9+x47-y9_47 <=1 
C314: x9+x48-y9_48 <=1 
C315: x9+x50-y9_50 <=1 
C316: x9+x54-y9_54 <=1 
C317: x9+x61 <=1 
C318: x10+x11-y10_11 <=1 
C319: x10+x18-y10_18 <=1 
C320: x10+x21-y10_21 <=1 
C321: x10+x22-y10_22 <=1 
C322: x10+x23-y10_23 <=1 
C323: x10+x24-y10_24 <=1 
C324: x10+x25-y10_25 <=1 
C325: x10+x28-y10_28 <=1 
C326: x10+x29-y10_29 <=1 
C327: x10+x32-y10_32 <=1 
C328: x10+x33-y10_33 <=1 
C329: x10+x35-y10_35 <=1 
C330: x10+x38-y10_38 <=1 
C331: x10+x39-y10_39 <=1 
C332: x10+x41-y10_41 <=1 
C333: x10+x43-y10_43 <=1 
C334: x10+x44 <=1 
C335: x10+x47-y10_47 <=1 
C336: x10+x48-y10_48 <=1 
C337: x10+x50-y10_50 <=1 
C338: x10+x51-y10_51 <=1 
C339: x10+x52-y10_52 <=1 
C340: x10+x53-y10_53 <=1 
C341: x10+x54 <=1 
C342: x10+x55-y10_55 <=1 
C343: x10+x59 <=1 
C344: x10+x61 <=1 
C345: x11+x13 <=1 
C346: x11+x15-y11_15 <=1 
C347: x11+x18-y11_18 <=1 
C348: x11+x20 <=1 
C349: x11+x21-y11_21 <=1 
C350: x11+x22 <=1 
C351: x11+x25 <=1 
C352: x11+x27 <=1 
C353: x11+x28 <=1 
C354: x11+x32-y11_32 <=1 
C355: x11+x35 <=1 
C356: x11+x37 <=1 
C357: x11+x38 <=1 
C358: x11+x39 <=1 
C359: x11+x40 <=1 
C360: x11+x44-y11_44 <=1 
C361: x11+x45 <=1 
C362: x11+x46 <=1 
C363: x11+x47 <=1 
C364: x11+x48-y11_48 <=1 
C365: x11+x49 <=1 
C366: x11+x50 <=1 
C367: x11+x51-y11_51 <=1 
C368: x11+x53-y11_53 <=1 
C369: x11+x54 <=1 
C370: x11+x56 <=1 
C371: x11+x58 <=1 
C372: x11+x59-y11_59 <=1 
C373: x11+x60-y11_60 <=1 
C374: x12+x14 <=1 
C375: x12+x15 <=1 
C376: x12+x17-y12_17 <=1 
C377: x12+x21-y12_21 <=1 
C378: x12+x23 <=1 
C379: x12+x24-y12_24 <=1 
C380: x12+x25 <=1 
C381: x12+x26 <=1 
C382: x12+x27-y12_27 <=1 
C383: x12+x29 <=1 
C384: x12+x31 <=1 
C385: x12+x32 <=1 
C386: x12+x33 <=1 
C387: x12+x34-y12_34 <=1 
C388: x12+x36-y12_36 <=1 
C389: x12+x38 <=1 
C390: x12+x40-y12_40 <=1 
C391: x12+x42 <=1 
C392: x12+x44-y12_44 <=1 
C393: x12+x45 <=1 
C394: x12+x46 <=1 
C395: x12+x47-y12_47 <=1 
C396: x12+x49-y12_49 <=1 
C397: x12+x50-y12_50 <=1 
C398: x12+x51 <=1 
C399: x12+x53-y12_53 <=1 
C400: x12+x54 <=1 
C401: x12+x55-y12_55 <=1 
C402: x12+x56-y12_56 <=1 
C403: x12+x58-y12_58 <=1 
C404: x12+x59-y12_59 <=1 
C405: x12+x61 <=1 
C406: x13+x15-y13_15 <=1 
C407: x13+x16-y13_16 <=1 
C408: x13+x17-y13_17 <=1 
C409: x13+x19 <=1 
C410: x13+x21-y13_21 <=1 
C411: x13+x22 <=1 
C412: x13+x24 <=1 
C413: x13+x25-y13_25 <=1 
C414: x13+x26 <=1 
C415: x13+x27 <=1 
C416: x13+x30 <=1 
C417: x13+x31 <=1 
C418: x13+x33 <=1 
C419: x13+x34 <=1 
C420: x13+x35 <=1 
C421: x13+x37-y13_37 <=1 
C422: x13+x40-y13_40 <=1 
C423: x13+x42-y13_42 <=1 
C424: x13+x43-y13_43 <=1 
C425: x13+x45-y13_45 <=1 
C426: x13+x47 <=1 
C427: x13+x49-y13_49 <=1 
C428: x13+x50-y13_50 <=1 
C429: x13+x51-y13_51 <=1 
C430: x13+x52-y13_52 <=1 
C431: x13+x54-y13_54 <=1 
C432: x13+x55 <=1 
C433: x13+x58-y13_58 <=1 
C434: x13+x61-y13_61 <=1 
C435: x14+x16 <=1 
C436: x14+x17 <=1 
C437: x14+x18-y14_18 <=1 
C438: x14+x20-y14_20 <=1 
C439: x14+x21 <=1 
C440: x14+x24-y14_24 <=1 
C441: x14+x25-y14_25 <=1 
C442: x14+x28 <=1 
C443: x14+x29 <=1 
C444: x14+x30 <=1 
C445: x14+x31 <=1 
C446: x14+x32 <=1 
C447: x14+x33 <=1 
C448: x14+x34-y14_34 <=1 
C449: x14+x37 <=1 
C450: x14+x38-y14_38 <=1 
C451: x14+x40 <=1 
C452: x14+x41-y14_41 <=1 
C453: x14+x42-y14_42 <=1 
C454: x14+x43-y14_43 <=1 
C455: x14+x45 <=1 
C456: x14+x48-y14_48 <=1 
C457: x14+x50-y14_50 <=1 
C458: x14+x52-y14_52 <=1 
C459: x14+x54-y14_54 <=1 
C460: x14+x56 <=1 
C461: x14+x57 <=1 
C462: x14+x58-y14_58 <=1 
C463: x14+x60-y14_60 <=1 
C464: x14+x61-y14_61 <=1 
C465: x15+x19-y15_19 <=1 
C466: x15+x20-y15_20 <=1 
C467: x15+x21 <=1 
C468: x15+x23 <=1 
C469: x15+x26 <=1 
C470: x15+x28 <=1 
C471: x15+x33-y15_33 <=1 
C472: x15+x34 <=1 
C473: x15+x37 <=1 
C474: x15+x42-y15_42 <=1 
C475: x15+x43 <=1 
C476: x15+x44 <=1 
C477: x15+x45 <=1 
C478: x15+x48-y15_48 <=1 
C479: x15+x50 <=1 
C480: x15+x53-y15_53 <=1 
C481: x15+x54-y15_54 <=1 
C482: x15+x55 <=1 
C483: x15+x56-y15_56 <=1 
C484: x15+x58 <=1 
C485: x15+x59-y15_59 <=1 
C486: x15+x61-y15_61 <=1 
C487: x16+x17-y16_17 <=1 
C488: x16+x18-y16_18 <=1 
C489: x16+x19 <=1 
C490: x16+x20-y16_20 <=1 
C491: x16+x21-y16_21 <=1 
C492: x16+x22-y16_22 <=1 
C493: x16+x24 <=1 
C494: x16+x28 <=1 
C495: x16+x29 <=1 
C496: x16+x31-y16_31 <=1 
C497: x16+x37-y16_37 <=1 
C498: x16+x38 <=1 
C499: x16+x39-y16_39 <=1 
C500: x16+x40-y16_40 <=1 
C501: x16+x41-y16_41 <=1 
C502: x16+x45 <=1 
C503: x16+x46-y16_46 <=1 
C504: x16+x48 <=1 
C505: x16+x49 <=1 
C506: x16+x51 <=1 
C507: x16+x58-y16_58 <=1 
C508: x16+x60 <=1 
C509: x17+x18-y17_18 <=1 
C510: x17+x22 <=1 
C511: x17+x24 <=1 
C512: x17+x30-y17_30 <=1 
C513: x17+x31 <=1 
C514: x17+x32-y17_32 <=1 
C515: x17+x33 <=1 
C516: x17+x34-y17_34 <=1 
C517: x17+x36 <=1 
C518: x17+x38-y17_38 <=1 
C519: x17+x39-y17_39 <=1 
C520: x17+x40 <=1 
C521: x17+x41 <=1 
C522: x17+x45-y17_45 <=1 
C523: x17+x47-y17_47 <=1 
C524: x17+x49 <=1 
C525: x17+x50 <=1 
C526: x17+x51-y17_51 <=1 
C527: x17+x52 <=1 
C528: x17+x55-y17_55 <=1 
C529: x17+x56-y17_56 <=1 
C530: x17+x57 <=1 
C531: x17+x58-y17_58 <=1 
C532: x17+x59 <=1 
C533: x17+x60-y17_60 <=1 
C534: x18+x20 <=1 
C535: x18+x21-y18_21 <=1 
C536: x18+x22 <=1 
C537: x18+x23 <=1 
C538: x18+x27 <=1 
C539: x18+x28 <=1 
C540: x18+x31-y18_31 <=1 
C541: x18+x32 <=1 
C542: x18+x33-y18_33 <=1 
C543: x18+x35 <=1 
C544: x18+x38 <=1 
C545: x18+x41 <=1 
C546: x18+x42 <=1 
C547: x18+x45 <=1 
C548: x18+x46-y18_46 <=1 
C549: x18+x47-y18_47 <=1 
C550: x18+x48 <=1 
C551: x18+x49-y18_49 <=1 
C552: x18+x50 <=1 
C553: x18+x52 <=1 
C554: x18+x56 <=1 
C555: x18+x57 <=1 
C556: x18+x59 <=1 
C557: x18+x60 <=1 
C558: x18+x61-y18_61 <=1 
C559: x19+x20-y19_20 <=1 
C560: x19+x21 <=1 
C561: x19+x22 <=1 
C562: x19+x25-y19_25 <=1 
C563: x19+x26-y19_26 <=1 
C564: x19+x27 <=1 
C565: x19+x28 <=1 
C566: x19+x30-y19_30 <=1 
C567: x19+x33-y19_33 <=1 
C568: x19+x36 <=1 
C569: x19+x37-y19_37 <=1 
C570: x19+x38-y19_38 <=1 
C571: x19+x41-y19_41 <=1 
C572: x19+x42-y19_42 <=1 
C573: x19+x43-y19_43 <=1 
C574: x19+x44 <=1 
C575: x19+x45 <=1 
C576: x19+x46-y19_46 <=1 
C577: x19+x48 <=1 
C578: x19+x51-y19_51 <=1 
C579: x19+x53-y19_53 <=1 
C580: x19+x55 <=1 
C581: x19+x56-y19_56 <=1 
C582: x19+x57 <=1 
C583: x19+x58 <=1 
C584: x19+x59 <=1 
C585: x19+x61 <=1 
C586: x20+x21 <=1 
C587: x20+x22-y20_22 <=1 
C588: x20+x23 <=1 
C589: x20+x26 <=1 
C590: x20+x27 <=1 
C591: x20+x31 <=1 
C592: x20+x33-y20_33 <=1 
C593: x20+x35-y20_35 <=1 
C594: x20+x36 <=1 
C595: x20+x39 <=1 
C596: x20+x40 <=1 
C597: x20+x41 <=1 
C598: x20+x42-y20_42 <=1 
C599: x20+x44-y20_44 <=1 
C600: x20+x45-y20_45 <=1 
C601: x20+x46 <=1 
C602: x20+x48 <=1 
C603: x20+x52 <=1 
C604: x20+x53-y20_53 <=1 
C605: x20+x57-y20_57 <=1 
C606: x20+x58 <=1 
C607: x20+x60-y20_60 <=1 
C608: x20+x61-y20_61 <=1 
C609: x21+x25 <=1 
C610: x21+x26-y21_26 <=1 
C611: x21+x31-y21_31 <=1 
C612: x21+x32 <=1 
C613: x21+x34 <=1 
C614: x21+x35 <=1 
C615: x21+x37-y21_37 <=1 
C616: x21+x38-y21_38 <=1 
C617: x21+x39-y21_39 <=1 
C618: x21+x41-y21_41 <=1 
C619: x21+x42-y21_42 <=1 
C620: x21+x44 <=1 
C621: x21+x45 <=1 
C622: x21+x46-y21_46 <=1 
C623: x21+x48 <=1 
C624: x21+x51-y21_51 <=1 
C625: x21+x54 <=1 
C626: x21+x57 <=1 
C627: x21+x59-y21_59 <=1 
C628: x22+x24 <=1 
C629: x22+x25 <=1 
C630: x22+x28-y22_28 <=1 
C631: x22+x29 <=1 
C632: x22+x30-y22_30 <=1 
C633: x22+x31-y22_31 <=1 
C634: x22+x35-y22_35 <=1 
C635: x22+x36 <=1 
C636: x22+x38 <=1 
C637: x22+x39-y22_39 <=1 
C638: x22+x41-y22_41 <=1 
C639: x22+x43 <=1 
C640: x22+x44 <=1 
C641: x22+x46 <=1 
C642: x22+x47 <=1 
C643: x22+x51-y22_51 <=1 
C644: x22+x53 <=1 
C645: x22+x56-y22_56 <=1 
C646: x22+x57-y22_57 <=1 
C647: x22+x58-y22_58 <=1 
C648: x22+x59 <=1 
C649: x22+x61-y22_61 <=1 
C650: x23+x24-y23_24 <=1 
C651: x23+x25-y23_25 <=1 
C652: x23+x27 <=1 
C653: x23+x29 <=1 
C654: x23+x30-y23_30 <=1 
C655: x23+x31-y23_31 <=1 
C656: x23+x32 <=1 
C657: x23+x33 <=1 
C658: x23+x34-y23_34 <=1 
C659: x23+x35-y23_35 <=1 
C660: x23+x38-y23_38 <=1 
C661: x23+x39 <=1 
C662: x23+x40-y23_40 <=1 
C663: x23+x43 <=1 
C664: x23+x45 <=1 
C665: x23+x46 <=1 
C666: x23+x51-y23_51 <=1 
C667: x23+x52-y23_52 <=1 
C668: x23+x54 <=1 
C669: x23+x58 <=1 
C670: x23+x59-y23_59 <=1 
C671: x24+x26-y24_26 <=1 
C672: x24+x27 <=1 
C673: x24+x29-y24_29 <=1 
C674: x24+x30-y24_30 <=1 
C675: x24+x31-y24_31 <=1 
C676: x24+x32 <=1 
C677: x24+x35 <=1 
C678: x24+x37 <=1 
C679: x24+x38 <=1 
C680: x24+x39-y24_39 <=1 
C681: x24+x42 <=1 
C682: x24+x43 <=1 
C683: x24+x44 <=1 
C684: x24+x45 <=1 
C685: x24+x47-y24_47 <=1 
C686: x24+x48 <=1 
C687: x24+x49-y24_49 <=1 
C688: x24+x50 <=1 
C689: x24+x51-y24_51 <=1 
C690: x24+x53 <=1 
C691: x24+x56 <=1 
C692: x24+x57 <=1 
C693: x24+x58 <=1 
C694: x24+x59 <=1 
C695: x24+x60-y24_60 <=1 
C696: x24+x61-y24_61 <=1 
C697: x25+x27-y25_27 <=1 
C698: x25+x29-y25_29 <=1 
C699: x25+x30-y25_30 <=1 
C700: x25+x31 <=1 
C701: x25+x32-y25_32 <=1 
C702: x25+x33 <=1 
C703: x25+x34 <=1 
C704: x25+x35 <=1 
C705: x25+x36 <=1 
C706: x25+x39 <=1 
C707: x25+x42-y25_42 <=1 
C708: x25+x46 <=1 
C709: x25+x47 <=1 
C710: x25+x48-y25_48 <=1 
C711: x25+x50-y25_50 <=1 
C712: x25+x52-y25_52 <=1 
C713: x25+x53-y25_53 <=1 
C714: x25+x55-y25_55 <=1 
C715: x25+x57 <=1 
C716: x25+x59-y25_59 <=1 
C717: x25+x60-y25_60 <=1 
C718: x25+x61 <=1 
C719: x26+x27 <=1 
C720: x26+x29 <=1 
C721: x26+x31 <=1 
C722: x26+x33 <=1 
C723: x26+x36-y26_36 <=1 
C724: x26+x37-y26_37 <=1 
C725: x26+x38-y26_38 <=1 
C726: x26+x40-y26_40 <=1 
C727: x26+x41 <=1 
C728: x26+x45 <=1 
C729: x26+x48-y26_48 <=1 
C730: x26+x49-y26_49 <=1 
C731: x26+x51 <=1 
C732: x26+x52-y26_52 <=1 
C733: x26+x53-y26_53 <=1 
C734: x26+x54-y26_54 <=1 
C735: x26+x55 <=1 
C736: x26+x58-y26_58 <=1 
C737: x26+x60 <=1 
C738: x27+x28 <=1 
C739: x27+x29-y27_29 <=1 
C740: x27+x30-y27_30 <=1 
C741: x27+x32-y27_32 <=1 
C742: x27+x33 <=1 
C743: x27+x35 <=1 
C744: x27+x36-y27_36 <=1 
C745: x27+x38 <=1 
C746: x27+x39 <=1 
C747: x27+x40 <=1 
C748: x27+x41-y27_41 <=1 
C749: x27+x42 <=1 
C750: x27+x43 <=1 
C751: x27+x44-y27_44 <=1 
C752: x27+x46-y27_46 <=1 
C753: x27+x47-y27_47 <=1 
C754: x27+x48-y27_48 <=1 
C755: x27+x49-y27_49 <=1 
C756: x27+x50-y27_50 <=1 
C757: x27+x51-y27_51 <=1 
C758: x27+x52-y27_52 <=1 
C759: x27+x54-y27_54 <=1 
C760: x27+x55 <=1 
C761: x27+x59 <=1 
C762: x28+x29-y28_29 <=1 
C763: x28+x30 <=1 
C764: x28+x31-y28_31 <=1 
C765: x28+x33 <=1 
C766: x28+x34-y28_34 <=1 
C767: x28+x35-y28_35 <=1 
C768: x28+x36-y28_36 <=1 
C769: x28+x38-y28_38 <=1 
C770: x28+x42 <=1 
C771: x28+x44-y28_44 <=1 
C772: x28+x45-y28_45 <=1 
C773: x28+x48-y28_48 <=1 
C774: x28+x49 <=1 
C775: x28+x50-y28_50 <=1 
C776: x28+x52-y28_52 <=1 
C777: x28+x53 <=1 
C778: x28+x54 <=1 
C779: x28+x55 <=1 
C780: x28+x58-y28_58 <=1 
C781: x28+x59-y28_59 <=1 
C782: x28+x60-y28_60 <=1 
C783: x28+x61-y28_61 <=1 
C784: x29+x30 <=1 
C785: x29+x31-y29_31 <=1 
C786: x29+x32-y29_32 <=1 
C787: x29+x33-y29_33 <=1 
C788: x29+x34-y29_34 <=1 
C789: x29+x35 <=1 
C790: x29+x40 <=1 
C791: x29+x44-y29_44 <=1 
C792: x29+x46-y29_46 <=1 
C793: x29+x50-y29_50 <=1 
C794: x29+x51 <=1 
C795: x29+x53 <=1 
C796: x29+x54-y29_54 <=1 
C797: x29+x56-y29_56 <=1 
C798: x29+x57 <=1 
C799: x29+x58 <=1 
C800: x29+x59 <=1 
C801: x29+x60 <=1 
C802: x29+x61 <=1 
C803: x30+x31-y30_31 <=1 
C804: x30+x32 <=1 
C805: x30+x34 <=1 
C806: x30+x36 <=1 
C807: x30+x38-y30_38 <=1 
C808: x30+x39 <=1 
C809: x30+x40 <=1 
C810: x30+x42 <=1 
C811: x30+x43 <=1 
C812: x30+x44 <=1 
C813: x30+x46 <=1 
C814: x30+x48-y30_48 <=1 
C815: x30+x51 <=1 
C816: x30+x54-y30_54 <=1 
C817: x30+x56 <=1 
C818: x30+x57 <=1 
C819: x30+x58 <=1 
C820: x30+x59 <=1 
C821: x30+x60-y30_60 <=1 
C822: x30+x61-y30_61 <=1 
C823: x31+x34-y31_34 <=1 
C824: x31+x37 <=1 
C825: x31+x41-y31_41 <=1 
C826: x31+x43 <=1 
C827: x31+x45 <=1 
C828: x31+x46-y31_46 <=1 
C829: x31+x49-y31_49 <=1 
C830: x31+x52-y31_52 <=1 
C831: x31+x54 <=1 
C832: x31+x55 <=1 
C833: x31+x57-y31_57 <=1 
C834: x31+x58 <=1 
C835: x31+x61 <=1 
C836: x32+x33-y32_33 <=1 
C837: x32+x34 <=1 
C838: x32+x35-y32_35 <=1 
C839: x32+x37 <=1 
C840: x32+x38 <=1 
C841: x32+x39 <=1 
C842: x32+x41-y32_41 <=1 
C843: x32+x42 <=1 
C844: x32+x44 <=1 
C845: x32+x45-y32_45 <=1 
C846: x32+x46 <=1 
C847: x32+x48 <=1 
C848: x32+x50 <=1 
C849: x32+x51-y32_51 <=1 
C850: x32+x52-y32_52 <=1 
C851: x32+x53 <=1 
C852: x32+x54-y32_54 <=1 
C853: x32+x56 <=1 
C854: x32+x58 <=1 
C855: x32+x60-y32_60 <=1 
C856: x33+x34-y33_34 <=1 
C857: x33+x36-y33_36 <=1 
C858: x33+x37-y33_37 <=1 
C859: x33+x38-y33_38 <=1 
C860: x33+x39-y33_39 <=1 
C861: x33+x41 <=1 
C862: x33+x42-y33_42 <=1 
C863: x33+x43-y33_43 <=1 
C864: x33+x44 <=1 
C865: x33+x49 <=1 
C866: x33+x50-y33_50 <=1 
C867: x33+x52 <=1 
C868: x33+x54-y33_54 <=1 
C869: x33+x56-y33_56 <=1 
C870: x33+x57 <=1 
C871: x33+x60-y33_60 <=1 
C872: x34+x35-y34_35 <=1 
C873: x34+x36-y34_36 <=1 
C874: x34+x38 <=1 
C875: x34+x39 <=1 
C876: x34+x40 <=1 
C877: x34+x41-y34_41 <=1 
C878: x34+x42-y34_42 <=1 
C879: x34+x43 <=1 
C880: x34+x44-y34_44 <=1 
C881: x34+x47 <=1 
C882: x34+x48-y34_48 <=1 
C883: x34+x49 <=1 
C884: x34+x53 <=1 
C885: x34+x55-y34_55 <=1 
C886: x34+x56 <=1 
C887: x34+x58-y34_58 <=1 
C888: x34+x59 <=1 
C889: x34+x60-y34_60 <=1 
C890: x35+x36 <=1 
C891: x35+x39-y35_39 <=1 
C892: x35+x41-y35_41 <=1 
C893: x35+x42 <=1 
C894: x35+x43-y35_43 <=1 
C895: x35+x46-y35_46 <=1 
C896: x35+x47 <=1 
C897: x35+x53-y35_53 <=1 
C898: x35+x54 <=1 
C899: x35+x55-y35_55 <=1 
C900: x35+x56 <=1 
C901: x35+x57-y35_57 <=1 
C902: x35+x58 <=1 
C903: x35+x60 <=1 
C904: x35+x61 <=1 
C905: x36+x39 <=1 
C906: x36+x41 <=1 
C907: x36+x42 <=1 
C908: x36+x43-y36_43 <=1 
C909: x36+x46 <=1 
C910: x36+x47-y36_47 <=1 
C911: x36+x48-y36_48 <=1 
C912: x36+x50 <=1 
C913: x36+x51-y36_51 <=1 
C914: x36+x52-y36_52 <=1 
C915: x36+x54 <=1 
C916: x36+x55-y36_55 <=1 
C917: x36+x58 <=1 
C918: x36+x59-y36_59 <=1 
C919: x36+x60-y36_60 <=1 
C920: x36+x61 <=1 
C921: x37+x39-y37_39 <=1 
C922: x37+x41-y37_41 <=1 
C923: x37+x42-y37_42 <=1 
C924: x37+x44 <=1 
C925: x37+x45 <=1 
C926: x37+x46 <=1 
C927: x37+x47-y37_47 <=1 
C928: x37+x48-y37_48 <=1 
C929: x37+x49 <=1 
C930: x37+x52-y37_52 <=1 
C931: x37+x53 <=1 
C932: x37+x54-y37_54 <=1 
C933: x37+x55-y37_55 <=1 
C934: x37+x56 <=1 
C935: x37+x57-y37_57 <=1 
C936: x37+x58 <=1 
C937: x37+x60-y37_60 <=1 
C938: x37+x61 <=1 
C939: x38+x39-y38_39 <=1 
C940: x38+x41-y38_41 <=1 
C941: x38+x45 <=1 
C942: x38+x48 <=1 
C943: x38+x49-y38_49 <=1 
C944: x38+x52 <=1 
C945: x38+x53-y38_53 <=1 
C946: x38+x55-y38_55 <=1 
C947: x38+x56 <=1 
C948: x38+x58-y38_58 <=1 
C949: x38+x59-y38_59 <=1 
C950: x38+x60 <=1 
C951: x38+x61 <=1 
C952: x39+x40 <=1 
C953: x39+x42-y39_42 <=1 
C954: x39+x44 <=1 
C955: x39+x45-y39_45 <=1 
C956: x39+x47 <=1 
C957: x39+x49 <=1 
C958: x39+x51 <=1 
C959: x39+x53 <=1 
C960: x39+x57 <=1 
C961: x39+x60-y39_60 <=1 
C962: x40+x41 <=1 
C963: x40+x43 <=1 
C964: x40+x46-y40_46 <=1 
C965: x40+x47 <=1 
C966: x40+x49-y40_49 <=1 
C967: x40+x50-y40_50 <=1 
C968: x40+x53 <=1 
C969: x40+x54-y40_54 <=1 
C970: x40+x55-y40_55 <=1 
C971: x40+x56 <=1 
C972: x40+x58-y40_58 <=1 
C973: x40+x59-y40_59 <=1 
C974: x41+x42 <=1 
C975: x41+x43 <=1 
C976: x41+x45 <=1 
C977: x41+x46 <=1 
C978: x41+x47 <=1 
C979: x41+x48-y41_48 <=1 
C980: x41+x50-y41_50 <=1 
C981: x41+x51 <=1 
C982: x41+x52-y41_52 <=1 
C983: x41+x53 <=1 
C984: x41+x54-y41_54 <=1 
C985: x41+x57 <=1 
C986: x41+x59 <=1 
C987: x41+x61-y41_61 <=1 
C988: x42+x44-y42_44 <=1 
C989: x42+x45-y42_45 <=1 
C990: x42+x46-y42_46 <=1 
C991: x42+x47 <=1 
C992: x42+x48 <=1 
C993: x42+x53-y42_53 <=1 
C994: x42+x54-y42_54 <=1 
C995: x42+x56 <=1 
C996: x42+x58 <=1 
C997: x42+x61-y42_61 <=1 
C998: x43+x44-y43_44 <=1 
C999: x43+x45-y43_45 <=1 
C1000: x43+x47-y43_47 <=1 
C1001: x43+x49-y43_49 <=1 
C1002: x43+x51 <=1 
C1003: x43+x52-y43_52 <=1 
C1004: x43+x53 <=1 
C1005: x43+x54 <=1 
C1006: x43+x57-y43_57 <=1 
C1007: x43+x58-y43_58 <=1 
C1008: x43+x59-y43_59 <=1 
C1009: x43+x61 <=1 
C1010: x44+x45 <=1 
C1011: x44+x46-y44_46 <=1 
C1012: x44+x47-y44_47 <=1 
C1013: x44+x48 <=1 
C1014: x44+x50 <=1 
C1015: x44+x52 <=1 
C1016: x44+x53-y44_53 <=1 
C1017: x44+x55-y44_55 <=1 
C1018: x44+x57 <=1 
C1019: x44+x58-y44_58 <=1 
C1020: x45+x46 <=1 
C1021: x45+x52 <=1 
C1022: x45+x56 <=1 
C1023: x45+x57 <=1 
C1024: x45+x58 <=1 
C1025: x45+x60-y45_60 <=1 
C1026: x45+x61-y45_61 <=1 
C1027: x46+x47-y46_47 <=1 
C1028: x46+x48 <=1 
C1029: x46+x49 <=1 
C1030: x46+x54 <=1 
C1031: x46+x55 <=1 
C1032: x46+x56-y46_56 <=1 
C1033: x46+x57 <=1 
C1034: x46+x58 <=1 
C1035: x46+x59 <=1 
C1036: x47+x48-y47_48 <=1 
C1037: x47+x49 <=1 
C1038: x47+x50-y47_50 <=1 
C1039: x47+x51 <=1 
C1040: x47+x52-y47_52 <=1 
C1041: x47+x53 <=1 
C1042: x47+x55 <=1 
C1043: x47+x56-y47_56 <=1 
C1044: x47+x57 <=1 
C1045: x47+x58 <=1 
C1046: x47+x60 <=1 
C1047: x48+x50 <=1 
C1048: x48+x52-y48_52 <=1 
C1049: x48+x53-y48_53 <=1 
C1050: x48+x54 <=1 
C1051: x48+x55 <=1 
C1052: x48+x56-y48_56 <=1 
C1053: x48+x58 <=1 
C1054: x49+x50-y49_50 <=1 
C1055: x49+x51-y49_51 <=1 
C1056: x49+x53-y49_53 <=1 
C1057: x49+x55-y49_55 <=1 
C1058: x49+x56 <=1 
C1059: x49+x57 <=1 
C1060: x49+x58-y49_58 <=1 
C1061: x49+x59 <=1 
C1062: x49+x61-y49_61 <=1 
C1063: x50+x51-y50_51 <=1 
C1064: x50+x52-y50_52 <=1 
C1065: x50+x55-y50_55 <=1 
C1066: x50+x56 <=1 
C1067: x50+x57 <=1 
C1068: x50+x58 <=1 
C1069: x50+x60 <=1 
C1070: x51+x53-y51_53 <=1 
C1071: x51+x54 <=1 
C1072: x51+x56-y51_56 <=1 
C1073: x51+x57-y51_57 <=1 
C1074: x51+x61-y51_61 <=1 
C1075: x52+x54-y52_54 <=1 
C1076: x52+x55 <=1 
C1077: x52+x56-y52_56 <=1 
C1078: x52+x57-y52_57 <=1 
C1079: x52+x59 <=1 
C1080: x52+x61-y52_61 <=1 
C1081: x53+x54 <=1 
C1082: x53+x55-y53_55 <=1 
C1083: x53+x59-y53_59 <=1 
C1084: x53+x60 <=1 
C1085: x54+x55 <=1 
C1086: x54+x56 <=1 
C1087: x54+x57-y54_57 <=1 
C1088: x54+x60-y54_60 <=1 
C1089: x54+x61-y54_61 <=1 
C1090: x55+x56 <=1 
C1091: x55+x57-y55_57 <=1 
C1092: x55+x59-y55_59 <=1 
C1093: x55+x60-y55_60 <=1 
C1094: x56+x59 <=1 
C1095: x57+x59-y57_59 <=1 
C1096: x58+x59 <=1 
C1097: x58+x60 <=1 
C1098: x58+x61 <=1 
C1099: x59+x60 <=1 
C1100: x60+x61-y60_61 <=1 

binary
x0
x1
x2
x3
x4
x5
x6
x7
x8
x9
x10
x11
x12
x13
x14
x15
x16
x17
x18
x19
x20
x21
x22
x23
x24
x25
x26
x27
x28
x29
x30
x31
x32
x33
x34
x35
x36
x37
x38
x39
x40
x41
x42
x43
x44
x45
x46
x47
x48
x49
x50
x51
x52
x53
x54
x55
x56
x57
x58
x59
x60
x61
