problem_generation/data/GISP/train/er_n=62_m=1100_p=0.60_SET2_setparam=100.00_alpha=0.50_305.sol
objective value:                                 1273
x2                                                  1 	(obj:100)
x9                                                  1 	(obj:100)
x10                                                 1 	(obj:100)
x15                                                 1 	(obj:100)
x27                                                 1 	(obj:100)
x31                                                 1 	(obj:100)
x36                                                 1 	(obj:100)
x48                                                 1 	(obj:100)
x51                                                 1 	(obj:100)
x52                                                 1 	(obj:100)
x56                                                 1 	(obj:100)
x57                                                 1 	(obj:100)
x60                                                 1 	(obj:100)
y36_48                                              1 	(obj:-1)
y2_36                                               1 	(obj:-1)
y36_52                                              1 	(obj:-1)
y9_48                                               1 	(obj:-1)
y36_51                                              1 	(obj:-1)
y31_57                                              1 	(obj:-1)
y31_52                                              1 	(obj:-1)
y9_15                                               1 	(obj:-1)
y27_36                                              1 	(obj:-1)
y15_48                                              1 	(obj:-1)
y15_56                                              1 	(obj:-1)
y10_48                                              1 	(obj:-1)
y36_60                                              1 	(obj:-1)
y48_52                                              1 	(obj:-1)
y10_52                                              1 	(obj:-1)
y2_57                                               1 	(obj:-1)
y48_56                                              1 	(obj:-1)
y51_57                                              1 	(obj:-1)
y10_51                                              1 	(obj:-1)
y51_56                                              1 	(obj:-1)
y9_31                                               1 	(obj:-1)
y27_48                                              1 	(obj:-1)
y27_52                                              1 	(obj:-1)
y27_51                                              1 	(obj:-1)
y52_57                                              1 	(obj:-1)
y2_51                                               1 	(obj:-1)
y52_56                                              1 	(obj:-1)
